 vasp.5.3.2 13Sep12 (build Nov 06 2012 17:49:15) complex

 executed on             LinuxIFC date 2014.04.03  08:43:11

 INCAR:
 POTCAR:   PAW_PBE C 08Apr2002
 POTCAR:   PAW_PBE C 08Apr2002
   VRHFIN =C: s2p2

   TITEL  = PAW_PBE C 08Apr2002
   POMASS =   12.011; ZVAL   =    4.000    mass and valenz
   ENMAX  =  400.000; ENMIN  =  300.000 eV
   QCUT   =   -5.516; QGAM   =   11.032    optimization parameters

   Description
     l     E      TYP  RCUT    TYP  RCUT
     0   .000     23  1.200
     0   .000     23  1.200
     1   .000     23  1.500
     1  2.500     23  1.500
     2   .000      7  1.500

 PAW_PBE C 08Apr2002                    :

 POSCAR: graphene a = 2.700000
  positions in direct lattice
  velocities in cartesian coordinates
 exchange correlation table for  LEXCH =        8
   RHO(1)=    0.500       N(1)  =     2000
   RHO(2)=  100.500       N(2)  =     4000

 ion  position               nearest neighbor table
   1  0.000  0.000  0.000-   2 1.42   2 1.42   2 1.42
   2  0.333  0.667  0.000-   1 1.42   1 1.42   1 1.42

  Warning from LATTYP: Monoclinic adjustement (A1->A3, A2->A1, A3->A2)!
  LATTYP: Found a base centered orthorhombic cell.
 ALAT       =     2.4638000000
 B/A-ratio  =     1.7320400000
 C/A-ratio  =    14.0000000000

  Lattice vectors:

 A1 = (   1.2319000000,   2.1337000760,   0.0000000000)
 A2 = (   1.2319000000,  -2.1337000760,   0.0000000000)
 A3 = (   0.0000000000,   0.0000000000, -34.4932000000)

Analysis of symmetry for initial positions (statically):
 Subroutine PRICEL returns:
 Original cell was already a primitive cell.

 Routine SETGRP: Setting up the symmetry group for a
 base centered orthorhombic supercell.

 Subroutine GETGRP returns: Found  4 space group operations
 (whereof  2 operations were pure point group operations)
 out of a pool of  8 trial point group operations.

The static configuration has the point symmetry C_1h.
 The point group associated with its full space group is C_2h.

Analysis of symmetry for dynamics (positions and initial velocities):
 Subroutine PRICEL returns:
 Original cell was already a primitive cell.

[...]

The dynamic configuration has the point symmetry C_1h.
 The point group associated with its full space group is C_2h.

Analysis of constrained symmetry for selective dynamics:
 Subroutine PRICEL returns:
 Original cell was already a primitive cell.

 Routine SETGRP: Setting up the symmetry group for a
 base centered orthorhombic supercell.

 Subroutine GETGRP returns: Found  4 space group operations
 (whereof  2 operations were pure point group operations)
 out of a pool of  8 trial point group operations.

The constrained configuration has the point symmetry C_1h.
 The point group associated with its full space group is C_2h.

 KPOINTS:  calcul des bandes graphene G - M - K -
  interpolating k-points between supplied coordinates
  k-points in reciprocal lattice

 I would recommend the setting:
   dimension x,y,z NGX =    16 NGY =   16 NGZ =  225
 SYSTEM =  "graphene"
 POSCAR =  graphene a = 2.700000

 Startparameter for this run:
   NWRITE =      2    write-flag & timer
   PREC   = accura    normal or accurate (medium, high low for compatibility)
   ISTART =      0    job   : 0-new  1-cont  2-samecut
   ICHARG =     11    charge: 1-file 2-atom 10-const
   ISPIN  =      1    spin polarized calculation?
   LNONCOLLINEAR =      F non collinear calculations
   LSORBIT =      F    spin-orbit coupling
   INIWAV =      1    electr: 0-lowe 1-rand  2-diag
   LASPH  =      F    aspherical Exc in radial PAW
   METAGGA=      F    non-selfconsistent MetaGGA calc.

 Electronic Relaxation 1
   ENCUT  =  400.0 eV  29.40 Ry    5.42 a.u.   4.02  4.02 56.25*2*pi/ulx,y,z
   ENINI  =  400.0     initial cutoff
   ENAUG  =  644.9 eV  augmentation charge cutoff
   NELM   =     60;   NELMIN=  4; NELMDL=  0     # of ELM steps
   EDIFF  = 0.1E-05   stopping-criterion for ELM
   LREAL  =      F    real-space projection
   NLSPLINE    = F    spline interpolate recip. space projectors
   LCOMPAT=      F    compatible to vasp.4.4
   GGA_COMPAT  = T    GGA compatible to vasp.4.4-vasp.4.6
   LMAXPAW     = -100 max onsite density
   LMAXMIX     =    2 max onsite mixed and CHGCAR
   VOSKOWN=      0    Vosko Wilk Nusair interpolation
   ROPT   =    0.00000
 Ionic relaxation
   EDIFFG = 0.1E-04   stopping-criterion for IOM
   NSW    =      0    number of steps for IOM
   NBLOCK =      1;   KBLOCK =      1    inner block; outer block
   IBRION =     -1    ionic relax: 0-MD 1-quasi-New 2-CG
   NFREE  =      0    steps in history (QN), initial steepest desc. (CG)
   ISIF   =      2    stress and relaxation
   IWAVPR =     10    prediction:  0-non 1-charg 2-wave 3-comb
   ISYM   =      2    0-nonsym 1-usesym 2-fastsym
   LCORR  =      T    Harris-Foulkes like correction to forces

   POTIM  = 0.5000    time-step for ionic-motion
   TEIN   =    0.0    initial temperature
   TEBEG  =    0.0;   TEEND  =   0.0 temperature during run
   SMASS  =  -3.00    Nose mass-parameter (am)
   estimated Nose-frequenzy (Omega)   =  0.10E-29 period in steps =****** mass=  -0.139E-27a.u.
   SCALEE = 1.0000    scale energy and forces
   NPACO  =    256;   APACO  = 16.0  distance and # of slots for P.C.
   PSTRESS=    0.0 pullay stress

  Mass of Ions in am
   POMASS =  12.01
  Ionic Valenz
   ZVAL   =   4.00
  Atomic Wigner-Seitz radii
  virtual crystal weights
   VCA    =   1.00
   NELECT =       8.0000    total number of electrons
   NUPDOWN=      -1.0000    fix difference up-down

 DOS related values:
   EMIN   =  10.00;   EMAX   =-10.00  energy-range for DOS
   EFERMI =   0.00
   ISMEAR =     1;   SIGMA  =   0.20  broadening in eV -4-tet -1-fermi 0-gaus

 Electronic relaxation 2 (details)
   IALGO  =     38    algorithm
   LDIAG  =      T    sub-space diagonalisation (order eigenvalues)
   LSUBROT=      T    optimize rotation matrix (better conditioning)
   TURBO    =      0    0=normal 1=particle mesh
   IRESTART =      0    0=no restart 2=restart with 2 vectors
   NREBOOT  =      0    no. of reboots
   NMIN     =      0    reboot dimension
   EREF     =   0.00    reference energy to select bands
   IMIX   =      4    mixing-type and parameters
     AMIX     =   0.40;   BMIX     =  1.00
     AMIX_MAG =   1.60;   BMIX_MAG =  1.00
     AMIN     =   0.10
     WC   =   100.;   INIMIX=   1;  MIXPRE=   1;  MAXMIX= -45

 Intra band minimization:
   WEIMIN = 0.0000     energy-eigenvalue tresh-hold
   EBREAK =  0.31E-07  absolut break condition
   DEPER  =   0.30     relativ break condition

   TIME   =   0.40     timestep for ELM

  volume/ion in A,a.u.               =      90.67       611.84
  Fermi-wavevector in a.u.,A,eV,Ry     =   0.578470  1.093149  4.552882  0.334627
  Thomas-Fermi vector in A             =   1.621789

 Write flags
   LWAVE  =      T    write WAVECAR
   LCHARG =      T    write CHGCAR
   LVTOT  =      F    write LOCPOT, total local potential
   LVHAR  =      F    write LOCPOT, Hartree potential only
   LELF   =      F    write electronic localiz. function (ELF)
   LORBIT =     11    0 simple, 1 ext, 2 COOP (PROOUT)

 Dipole corrections
   LMONO  =      F    monopole corrections only (constant potential shift)
   LDIPOL =      F    correct potential (dipole corrections)
   IDIPOL =      0    1-x, 2-y, 3-z, 4-all directions
   EPSILON=  1.0000000 bulk dielectric constant

 Exchange correlation treatment:
   GGA     =    --    GGA type
   VOSKOWN=      0    Vosko Wilk Nusair interpolation
   LHFCALC =     F    Hartree Fock is set to
   LHFONE  =     F    Hartree Fock one center treatment
   AEXX    =    0.0000 exact exchange contribution

 Linear response parameters
   LEPSILON=     F    determine dielectric tensor
   LRPA    =     F    only Hartree local field effects (RPA)
   LNABLA  =     F    use nabla operator in PAW spheres
   LVEL    =     F    velocity operator in full k-point grid
   LINTERFAST=   F  fast interpolation
   KINTER  =     0    interpolate to denser k-point grid
   CSHIFT  =0.1000    complex shift for real part using Kramers Kronig
   OMEGAMAX=  -1.0    maximum frequency
   DEG_THRESHOLD= 0.2000000E-02 threshold for treating states as degnerate
   RTIME   =    0.100 relaxation time in fs

 Orbital magnetization related:
   ORBITALMAG=     F  switch on orbital magnetization
   LCHIMAG   =     F  perturbation theory with respect to B field
   DQ        =  0.001000  dq finite difference perturbation B field

 Static calculation
 charge density and potential remain constant during run
 non-spin polarized calculation
 Variant of blocked Davidson
 Davidson routine will perform the subspace rotation
 perform sub-space diagonalisation
    after iterative eigenvector-optimisation
 no mixing
 using additional bands            4
 reciprocal scheme for non local part
 calculate Harris-corrections to forces
   (improved forces if not selfconsistent)
 use gradient corrections
 WARNING: stress and forces are not correct
  (second derivative of E(xc) not defined)
 use of overlap-Matrix (Vanderbilt PP)
 Methfessel and Paxton  Order N= 1 SIGMA  =   0.20

  energy-cutoff  :      400.00
  volume of cell :      181.33
      direct lattice vectors                 reciprocal lattice vectors
     2.463800000  0.000000000  0.000000000     0.405877100  0.234334715  0.000000000
    -1.231900000  2.133700076  0.000000000     0.000000000  0.468669431  0.000000000
     0.000000000  0.000000000 34.493200000     0.000000000  0.000000000  0.028991221

  length of vectors
     2.463800000  2.463788470 34.493200000     0.468667237  0.468669431  0.028991221

 k-points in units of 2pi/SCALE and weight:  calcul des bandes graphene G - M - K -
   0.00000000  0.00000000  0.00000000       0.011
   0.01724138  0.00995438  0.00000000       0.011
   0.03448276  0.01990875  0.00000000       0.011
   0.05172414  0.02986313  0.00000000       0.011
   0.06896552  0.03981751  0.00000000       0.011
   0.08620690  0.04977189  0.00000000       0.011
   0.10344828  0.05972626  0.00000000       0.011
   0.12068966  0.06968064  0.00000000       0.011
   0.13793103  0.07963502  0.00000000       0.011
   0.15517241  0.08958939  0.00000000       0.011
   0.17241379  0.09954377  0.00000000       0.011
   0.18965517  0.10949815  0.00000000       0.011
   0.20689655  0.11945253  0.00000000       0.011
   0.22413793  0.12940690  0.00000000       0.011
   0.24137931  0.13936128  0.00000000       0.011
   0.25862069  0.14931566  0.00000000       0.011
   0.27586207  0.15927003  0.00000000       0.011
   0.29310345  0.16922441  0.00000000       0.011
   0.31034483  0.17917879  0.00000000       0.011
   0.32758621  0.18913316  0.00000000       0.011
   0.34482759  0.19908754  0.00000000       0.011
   0.36206897  0.20904192  0.00000000       0.011
   0.37931034  0.21899630  0.00000000       0.011
   0.39655172  0.22895067  0.00000000       0.011
   0.41379310  0.23890505  0.00000000       0.011
   0.43103448  0.24885943  0.00000000       0.011
   0.44827586  0.25881380  0.00000000       0.011
   0.46551724  0.26876818  0.00000000       0.011
   0.48275862  0.27872256  0.00000000       0.011
   0.50000000  0.28867694  0.00000000       0.011
   0.50000000  0.28867694  0.00000000       0.011
[...]
   0.35057468  0.54749069  0.00000000       0.011
   0.34482756  0.55744506  0.00000000       0.011
   0.33908043  0.56739944  0.00000000       0.011
   0.33333330  0.57735381  0.00000000       0.011
[...]
   0.16091952  0.27872253  0.00000000       0.011
   0.14942527  0.25881378  0.00000000       0.011
   0.13793102  0.23890503  0.00000000       0.011
   0.12643677  0.21899627  0.00000000       0.011
   0.11494252  0.19908752  0.00000000       0.011
   0.10344827  0.17917877  0.00000000       0.011
   0.09195401  0.15927002  0.00000000       0.011
   0.08045976  0.13936127  0.00000000       0.011
   0.06896551  0.11945251  0.00000000       0.011
   0.05747126  0.09954376  0.00000000       0.011
   0.04597701  0.07963501  0.00000000       0.011
   0.03448276  0.05972626  0.00000000       0.011
   0.02298850  0.03981750  0.00000000       0.011
   0.01149425  0.01990875  0.00000000       0.011
   0.00000000  0.00000000  0.00000000       0.011

 k-points in reciprocal lattice and weights:  calcul des bandes graphene G - M - K -
   0.00000000  0.00000000  0.00000000       0.011
   0.01724138  0.00000000  0.00000000       0.011
   0.03448276  0.00000000  0.00000000       0.011
   0.05172414  0.00000000  0.00000000       0.011
   0.06896552  0.00000000  0.00000000       0.011
   0.08620690  0.00000000  0.00000000       0.011
   0.10344828  0.00000000  0.00000000       0.011
   0.12068966  0.00000000  0.00000000       0.011
   0.13793103  0.00000000  0.00000000       0.011
   0.15517241  0.00000000  0.00000000       0.011
   0.17241379  0.00000000  0.00000000       0.011
   0.18965517  0.00000000  0.00000000       0.011
   0.20689655  0.00000000  0.00000000       0.011
   0.22413793  0.00000000  0.00000000       0.011
   0.24137931  0.00000000  0.00000000       0.011
   0.25862069  0.00000000  0.00000000       0.011
   0.27586207  0.00000000  0.00000000       0.011
   0.29310345  0.00000000  0.00000000       0.011
   0.31034483  0.00000000  0.00000000       0.011
   0.32758621  0.00000000  0.00000000       0.011
   0.34482759  0.00000000  0.00000000       0.011
   0.36206897  0.00000000  0.00000000       0.011
   0.37931034  0.00000000  0.00000000       0.011
   0.39655172  0.00000000  0.00000000       0.011
   0.41379310  0.00000000  0.00000000       0.011
   0.43103448  0.00000000  0.00000000       0.011
   0.44827586  0.00000000  0.00000000       0.011
   0.46551724  0.00000000  0.00000000       0.011
   0.48275862  0.00000000  0.00000000       0.011
   0.50000000  0.00000000  0.00000000       0.011
   0.50000000  0.00000000  0.00000000       0.011
   0.49425287  0.01149425  0.00000000       0.011
   0.48850574  0.02298850  0.00000000       0.011
   0.48275862  0.03448276  0.00000000       0.011
   0.47701149  0.04597701  0.00000000       0.011
   0.47126436  0.05747126  0.00000000       0.011
   0.46551723  0.06896551  0.00000000       0.011
   0.45977011  0.08045976  0.00000000       0.011
   0.45402298  0.09195401  0.00000000       0.011
   0.44827585  0.10344827  0.00000000       0.011
   0.44252872  0.11494252  0.00000000       0.011
   0.43678160  0.12643677  0.00000000       0.011
   0.43103447  0.13793102  0.00000000       0.011
   0.42528734  0.14942527  0.00000000       0.011
   0.41954021  0.16091952  0.00000000       0.011
   0.41379309  0.17241378  0.00000000       0.011
   0.40804596  0.18390803  0.00000000       0.011
   0.40229883  0.19540228  0.00000000       0.011
   0.39655170  0.20689653  0.00000000       0.011
   0.39080458  0.21839078  0.00000000       0.011
   0.38505745  0.22988503  0.00000000       0.011
   0.37931032  0.24137929  0.00000000       0.011
   0.37356319  0.25287354  0.00000000       0.011
   0.36781607  0.26436779  0.00000000       0.011
   0.36206894  0.27586204  0.00000000       0.011
   0.35632181  0.28735629  0.00000000       0.011
   0.35057468  0.29885054  0.00000000       0.011
   0.34482756  0.31034480  0.00000000       0.011
   0.33908043  0.32183905  0.00000000       0.011
   0.33333330  0.33333330  0.00000000       0.011
[...]
   0.16091952  0.16091952  0.00000000       0.011
   0.14942527  0.14942527  0.00000000       0.011
   0.13793102  0.13793102  0.00000000       0.011
   0.12643677  0.12643677  0.00000000       0.011
   0.11494252  0.11494252  0.00000000       0.011
   0.10344827  0.10344827  0.00000000       0.011
   0.09195401  0.09195401  0.00000000       0.011
   0.08045976  0.08045976  0.00000000       0.011
   0.06896551  0.06896551  0.00000000       0.011
   0.05747126  0.05747126  0.00000000       0.011
   0.04597701  0.04597701  0.00000000       0.011
   0.03448276  0.03448276  0.00000000       0.011
   0.02298850  0.02298850  0.00000000       0.011
   0.01149425  0.01149425  0.00000000       0.011
   0.00000000  0.00000000  0.00000000       0.011

 position of ions in fractional coordinates (direct lattice)
   0.00000000  0.00000000  0.00000000
   0.33333330  0.66666670  0.00000000

 position of ions in cartesian coordinates  (Angst):
   0.00000000  0.00000000  0.00000000
  -0.00000012  1.42246679  0.00000000

 k-point  1 :   0.0000 0.0000 0.0000  plane waves:    3179
 k-point  2 :   0.0172 0.0000 0.0000  plane waves:    3161
 k-point  3 :   0.0345 0.0000 0.0000  plane waves:    3177
 k-point  4 :   0.0517 0.0000 0.0000  plane waves:    3177
 k-point  5 :   0.0690 0.0000 0.0000  plane waves:    3185
 k-point  6 :   0.0862 0.0000 0.0000  plane waves:    3187
 k-point  7 :   0.1034 0.0000 0.0000  plane waves:    3181
 k-point  8 :   0.1207 0.0000 0.0000  plane waves:    3187
 k-point  9 :   0.1379 0.0000 0.0000  plane waves:    3197
 k-point 10 :   0.1552 0.0000 0.0000  plane waves:    3217
 k-point 11 :   0.1724 0.0000 0.0000  plane waves:    3221
 k-point 12 :   0.1897 0.0000 0.0000  plane waves:    3241
 k-point 13 :   0.2069 0.0000 0.0000  plane waves:    3263
 k-point 14 :   0.2241 0.0000 0.0000  plane waves:    3267
 k-point 15 :   0.2414 0.0000 0.0000  plane waves:    3275
 k-point 16 :   0.2586 0.0000 0.0000  plane waves:    3283
 k-point 17 :   0.2759 0.0000 0.0000  plane waves:    3283
 k-point 18 :   0.2931 0.0000 0.0000  plane waves:    3295
 k-point 19 :   0.3103 0.0000 0.0000  plane waves:    3297
 k-point 20 :   0.3276 0.0000 0.0000  plane waves:    3281
 k-point 21 :   0.3448 0.0000 0.0000  plane waves:    3287
 k-point 22 :   0.3621 0.0000 0.0000  plane waves:    3289
 k-point 23 :   0.3793 0.0000 0.0000  plane waves:    3297
 k-point 24 :   0.3966 0.0000 0.0000  plane waves:    3293
 k-point 25 :   0.4138 0.0000 0.0000  plane waves:    3299
 k-point 26 :   0.4310 0.0000 0.0000  plane waves:    3289
 k-point 27 :   0.4483 0.0000 0.0000  plane waves:    3297
 k-point 28 :   0.4655 0.0000 0.0000  plane waves:    3293
 k-point 29 :   0.4828 0.0000 0.0000  plane waves:    3280
 k-point 30 :   0.5000 0.0000 0.0000  plane waves:    3278
 k-point 31 :   0.5000 0.0000 0.0000  plane waves:    3278
 k-point 32 :   0.4943 0.0115 0.0000  plane waves:    3278
 k-point 33 :   0.4885 0.0230 0.0000  plane waves:    3274
 k-point 34 :   0.4828 0.0345 0.0000  plane waves:    3290
 k-point 35 :   0.4770 0.0460 0.0000  plane waves:    3296
 k-point 36 :   0.4713 0.0575 0.0000  plane waves:    3304
 k-point 37 :   0.4655 0.0690 0.0000  plane waves:    3308
 k-point 38 :   0.4598 0.0805 0.0000  plane waves:    3324
 k-point 39 :   0.4540 0.0920 0.0000  plane waves:    3318
 k-point 40 :   0.4483 0.1034 0.0000  plane waves:    3314
 k-point 41 :   0.4425 0.1149 0.0000  plane waves:    3320
 k-point 42 :   0.4368 0.1264 0.0000  plane waves:    3326
 k-point 43 :   0.4310 0.1379 0.0000  plane waves:    3322
 k-point 44 :   0.4253 0.1494 0.0000  plane waves:    3316
 k-point 45 :   0.4195 0.1609 0.0000  plane waves:    3318
 k-point 46 :   0.4138 0.1724 0.0000  plane waves:    3326
 k-point 47 :   0.4080 0.1839 0.0000  plane waves:    3320
 k-point 48 :   0.4023 0.1954 0.0000  plane waves:    3328
 k-point 49 :   0.3966 0.2069 0.0000  plane waves:    3326
 k-point 50 :   0.3908 0.2184 0.0000  plane waves:    3322
 k-point 51 :   0.3851 0.2299 0.0000  plane waves:    3314
 k-point 52 :   0.3793 0.2414 0.0000  plane waves:    3306
 k-point 53 :   0.3736 0.2529 0.0000  plane waves:    3304
 k-point 54 :   0.3678 0.2644 0.0000  plane waves:    3298
 k-point 55 :   0.3621 0.2759 0.0000  plane waves:    3294
 k-point 56 :   0.3563 0.2874 0.0000  plane waves:    3286
 k-point 57 :   0.3506 0.2989 0.0000  plane waves:    3284
 k-point 58 :   0.3448 0.3103 0.0000  plane waves:    3290
 k-point 59 :   0.3391 0.3218 0.0000  plane waves:    3286
 k-point 60 :   0.3333 0.3333 0.0000  plane waves:    3288
[...]
 k-point 76 :   0.1609 0.1609 0.0000  plane waves:    3300
 k-point 77 :   0.1494 0.1494 0.0000  plane waves:    3290
 k-point 78 :   0.1379 0.1379 0.0000  plane waves:    3282
 k-point 79 :   0.1264 0.1264 0.0000  plane waves:    3272
 k-point 80 :   0.1149 0.1149 0.0000  plane waves:    3250
 k-point 81 :   0.1034 0.1034 0.0000  plane waves:    3238
 k-point 82 :   0.0920 0.0920 0.0000  plane waves:    3218
 k-point 83 :   0.0805 0.0805 0.0000  plane waves:    3204
 k-point 84 :   0.0690 0.0690 0.0000  plane waves:    3186
 k-point 85 :   0.0575 0.0575 0.0000  plane waves:    3184
 k-point 86 :   0.0460 0.0460 0.0000  plane waves:    3184
 k-point 87 :   0.0345 0.0345 0.0000  plane waves:    3180
 k-point 88 :   0.0230 0.0230 0.0000  plane waves:    3168
 k-point 89 :   0.0115 0.0115 0.0000  plane waves:    3164
 k-point 90 :   0.0000 0.0000 0.0000  plane waves:    3179

 maximum and minimum number of plane-waves per node :      3328     3161

 maximum number of plane-waves:      3328
 maximum index in each direction:
   IXMAX=    4   IYMAX=    4   IZMAX=   56
   IXMIN=   -4   IYMIN=   -4   IZMIN=  -56

 WARNING: aliasing errors must be expected set NGX to  18 to avoid them
 WARNING: aliasing errors must be expected set NGY to  18 to avoid them
 NGZ is ok and might be reduce to 226
 aliasing errors are usually negligible using standard VASP settings
 and one can safely disregard these warnings

 serial   3D FFT for wavefunctions
 parallel 3D FFT for charge:
    minimum data exchange during FFTs selected (reduces bandwidth)

 initial charge density was supplied:
 number of electron       8.0000000 magnetization
 keeping initial charge density in first step

 Maximum index for augmentation-charges          977 (set IRDMAX)

 First call to EWALD:  gamma=   0.313
 Maximum number of real-space cells 6x 6x 1
 Maximum number of reciprocal cells 1x 1x14

 FEWALD executed in parallel

----------------------------------------- Iteration    1(   1)  ---------------------------------------

 eigenvalue-minimisations  :  1728
 total energy-change (2. order) : 0.2646871E+02  (-0.2441393E+03)
 number of electron       8.0000000 magnetization
 augmentation part        8.0000000 magnetization

 Free energy of the ion-electron system (eV)
  alpha Z        PSCENC =         1.79737864
  Ewald energy   TEWEN  =      2627.90694320
  -1/2 Hartree   DENC   =     -2868.44287024
  -exchange  EXHF       =         0.00000000
  -V(xc)+E(xc)   XCENC  =        28.78221281
  PAW double counting   =       139.88729995     -142.45872842
  entropy T*S    EENTRO =        -0.00150980
  eigenvalues    EBANDS =       -55.25646380
  atomic energy  EATOM  =       294.25444774
  free energy    TOTEN  =        26.46871009 eV

  energy without entropy =       26.47021989  energy(sigma->0) =       26.46921336

[...]

 eigenvalue-minimisations  :  2344
 total energy-change (2. order) :-0.4059939E+02  (-0.2997020E+02)
 number of electron       8.0000000 magnetization
 augmentation part        8.0000000 magnetization

[...]

----------------------------------------- Iteration    1(   7)  ---------------------------------------

 eigenvalue-minimisations  :  2240
 total energy-change (2. order) :-0.1387434E-06  (-0.1389024E-06)
 number of electron       8.0000000 magnetization
 augmentation part        8.0000000 magnetization

 Free energy of the ion-electron system (eV)
  alpha Z        PSCENC =         1.79737864
  Ewald energy   TEWEN  =      2627.90694320
  -1/2 Hartree   DENC   =     -2868.44287024
  -exchange  EXHF       =         0.00000000
  -V(xc)+E(xc)   XCENC  =        28.78221281
  PAW double counting   =       139.88729995     -142.45872842
  entropy T*S    EENTRO =        -0.00147622
  eigenvalues    EBANDS =       -99.05643413
  atomic energy  EATOM  =       294.25444774
  free energy    TOTEN  =       -17.33122666 eV

  energy without entropy =      -17.32975044  energy(sigma->0) =      -17.33073459

 average (electrostatic) potential at core
  the test charge radii are     0.6991
  (the norm of the test charge is              1.0000)
       1 -58.8187       2 -58.8186

 E-fermi :  -3.3698     XC(G=0):  -1.2849     alpha+bet : -1.1073

 k-point   1 :       0.0000    0.0000    0.0000
  band No.  band energies     occupation
      1     -22.9144      2.00000
      2     -11.0077      2.00000
      3      -6.4010      2.00000
      4      -6.4009      2.00000
      5      -0.1107      0.00000
      6       0.6464      0.00000
      7       0.8658      0.00000
      8       1.0910      0.00000

[...]

 k-point  90 :       0.0000    0.0000    0.0000
  band No.  band energies     occupation
      1     -22.9144      2.00000
      2     -11.0077      2.00000
      3      -6.4010      2.00000
      4      -6.4009      2.00000
      5      -0.1107      0.00000
      6       0.6464      0.00000
      7       0.8658      0.00000
      8       1.0910      0.00000

 soft charge-density along one line, spin component           1
         0         1         2         3         4         5         6         7         8         9
 total charge-density along one line

------------------------ aborting loop because EDIFF is reached ----------------------------------------

 total charge

# of ion     s       p       d       tot
  1        0.857   1.818   0.000   2.675
  2        0.857   1.818   0.000   2.675
tot        1.713   3.636   0.000   5.349

  FORCE on cell =-STRESS in cart. coord.  units (eV):
  Direction    XX          YY          ZZ          XY          YZ          ZX
  Alpha Z     1.79738     1.79738     1.79738
  Ewald    2897.02015  2897.02095 -3166.13420    -0.00003     0.00000     0.00000
  Hartree  2858.23845  2859.11840 -2846.85644    -1.10702     0.00000     0.00000
  E(xc)     -29.19116   -29.19116   -30.36200     0.00000     0.00000     0.00000
  Local   -5838.03451 -5843.19478  5911.74022     6.56667     0.00000     0.00000
  n-local    -7.86639    -8.07755    -7.32246    -0.13447     0.00000     0.00000
  augment    -0.82152    -0.80549    -0.74360    -0.01770     0.00000     0.00000
  Kinetic   122.80151   122.51800   138.49153     3.10127    -0.00002     0.00000
  Fock        0.00000     0.00000     0.00000     0.00000     0.00000     0.00000
  Total       3.94390    -0.81424     0.61043     8.40873     0.00000     0.00000
  in kB      34.84691    -7.19435     5.39350    74.29655     0.00000     0.00000

 VOLUME and BASIS-vectors are now :
  energy-cutoff  :      400.00
  volume of cell :      181.33
      direct lattice vectors                 reciprocal lattice vectors
     2.463800000  0.000000000  0.000000000     0.405877100  0.234334715  0.000000000
    -1.231900000  2.133700076  0.000000000     0.000000000  0.468669431  0.000000000
     0.000000000  0.000000000 34.493200000     0.000000000  0.000000000  0.028991221

  length of vectors
     2.463800000  2.463788470 34.493200000     0.468667237  0.468669431  0.028991221

 FORCES acting on ions
    electron-ion (+dipol)            ewald-force                    non-local-force                 convergence-correction
   0.573E+01 0.222E+01 -.149E-07   -.220E-04 -.136E-02 0.000E+00   0.412E+01 0.168E+01 0.000E+00   -.170E+01 -.663E+00 0.597E-12
   -.573E+01 -.222E+01 0.290E-07   0.220E-04 0.136E-02 0.000E+00   -.412E+01 -.168E+01 0.000E+00   0.170E+01 0.663E+00 0.626E-12
   -.536E-06 0.220E-05 0.142E-07   -.319E-15 0.141E-13 0.000E+00   0.000E+00 0.222E-15 0.000E+00   0.544E-04 -.295E-04 0.122E-11

 POSITION                                       TOTAL-FORCE (eV/Angst)
      0.00000      0.00000      0.00000         8.151284      3.241277      0.000000
      0.00000      1.42247      0.00000        -8.151284     -3.241277      0.000000
    total drift:                                0.000054     -0.000027      0.000000

  FREE ENERGIE OF THE ION-ELECTRON SYSTEM (eV)
  free  energy   TOTEN  =       -17.33122666 eV

  energy  without entropy=      -17.32975044  energy(sigma->0) =      -17.33073459

 writing wavefunctions

 total charge

# of ion     s       p       d       tot
  1        0.857   1.818   0.000   2.675
  2        0.857   1.818   0.000   2.675
tot        1.713   3.636   0.000   5.349