 vasp.5.3.2 13Sep12 (build Nov 15 2012 16:01:14) complex

 INCAR:
 POTCAR:    PAW_PBE Cu 22Jun2005
 POTCAR:    PAW_PBE Cu 22Jun2005
   VRHFIN =Cu: d10 p1

   TITEL  = PAW_PBE Cu 22Jun2005
   POMASS =   63.546; ZVAL   =   11.000    mass and valenz
   ENMAX  =  295.446; ENMIN  =  221.585 eV

  PAW_PBE Cu 22Jun2005                  :

 POSCAR: Cu metal rhomboedrique
  positions in direct lattice
 exchange correlation table for  LEXCH =       14
   RHO(1)=    0.500       N(1)  =     2000
   RHO(2)=  100.500       N(2)  =     4000

 ion  position               nearest neighbor table
   1  0.000  0.000  0.000-

  LATTYP: Found a face centered cubic cell.
 ALAT       =     3.6200000000

  Lattice vectors:

 A1 = (   1.8100000000,   1.8100000000,   0.0000000000)
 A2 = (   0.0000000000,   1.8100000000,   1.8100000000)
 A3 = (   1.8100000000,   0.0000000000,   1.8100000000)

Analysis of symmetry for initial positions (statically):
 Subroutine PRICEL returns:
 Original cell was already a primitive cell.

 Routine SETGRP: Setting up the symmetry group for a
 face centered cubic supercell.

 Subroutine GETGRP returns: Found 48 space group operations
 (whereof 48 operations were pure point group operations)
 out of a pool of 48 trial point group operations.

The static configuration has the point symmetry O_h .

Analysis of symmetry for dynamics (positions and initial velocities):
 Subroutine PRICEL returns:
 Original cell was already a primitive cell.

 Routine SETGRP: Setting up the symmetry group for a
 face centered cubic supercell.

 Subroutine GETGRP returns: Found 48 space group operations
 (whereof 48 operations were pure point group operations)
 out of a pool of 48 trial point group operations.

The dynamic configuration has the point symmetry O_h .

 KPOINTS: kpoints for bandstructure L-G-X-U K-G
  interpolating k-points between supplied coordinates
  k-points in reciprocal lattice

 I would recommend the setting:
   dimension x,y,z NGX =    18 NGY =   18 NGZ =   18
 SYSTEM =  "Cu metal"
 POSCAR =  Cu metal rhomboedrique

 Startparameter for this run:
   NWRITE =      2    write-flag & timer
   PREC   = accura    normal or accurate (medium, high low for compatibility)
   ISTART =      0    job   : 0-new  1-cont  2-samecut
   ICHARG =     11    charge: 1-file 2-atom 10-const
   ISPIN  =      1    spin polarized calculation?
   LNONCOLLINEAR =      F non collinear calculations
   LSORBIT =      F    spin-orbit coupling
   INIWAV =      1    electr: 0-lowe 1-rand  2-diag
   LASPH  =      F    aspherical Exc in radial PAW
   METAGGA=      F    non-selfconsistent MetaGGA calc.

 Electronic Relaxation 1
   ENCUT  =  450.0 eV  33.07 Ry    5.75 a.u.   4.43  4.43  4.43*2*pi/ulx,y,z
   ENINI  =  450.0     initial cutoff
   ENAUG  =  587.0 eV  augmentation charge cutoff
   NELM   =     60;   NELMIN=  2; NELMDL= -5     # of ELM steps
   EDIFF  = 0.1E-05   stopping-criterion for ELM
   LREAL  =      F    real-space projection
   NLSPLINE    = F    spline interpolate recip. space projectors
   LCOMPAT=      F    compatible to vasp.4.4
   GGA_COMPAT  = T    GGA compatible to vasp.4.4-vasp.4.6
   LMAXPAW     = -100 max onsite density
   LMAXMIX     =    2 max onsite mixed and CHGCAR
   VOSKOWN=      0    Vosko Wilk Nusair interpolation
   ROPT   =    0.00000
 Ionic relaxation
   EDIFFG = 0.1E-04   stopping-criterion for IOM
   NSW    =      0    number of steps for IOM
   NBLOCK =      1;   KBLOCK =      1    inner block; outer block
   IBRION =     -1    ionic relax: 0-MD 1-quasi-New 2-CG
   NFREE  =      0    steps in history (QN), initial steepest desc. (CG)
   ISIF   =      2    stress and relaxation
   IWAVPR =      0    prediction:  0-non 1-charg 2-wave 3-comb
   ISYM   =      2    0-nonsym 1-usesym 2-fastsym
   LCORR  =      T    Harris-Foulkes like correction to forces

   POTIM  = 0.5000    time-step for ionic-motion
   TEIN   =    0.0    initial temperature
   TEBEG  =    0.0;   TEEND  =   0.0 temperature during run
   SMASS  =  -3.00    Nose mass-parameter (am)
   estimated Nose-frequenzy (Omega)   =  0.10E-29 period in steps =****** mass=  -0.150E-27a.u.
   SCALEE = 1.0000    scale energy and forces
   NPACO  =    256;   APACO  = 16.0  distance and # of slots for P.C.
   PSTRESS=    0.0 pullay stress

  Mass of Ions in am
   POMASS =  63.55
  Ionic Valenz
   ZVAL   =  11.00
  Atomic Wigner-Seitz radii
  virtual crystal weights
   VCA    =   1.00
   NELECT =      11.0000    total number of electrons
   NUPDOWN=      -1.0000    fix difference up-down

 DOS related values:
   EMIN   =  10.00;   EMAX   =-10.00  energy-range for DOS
   EFERMI =   0.00
   ISMEAR =     1;   SIGMA  =   0.20  broadening in eV -4-tet -1-fermi 0-gaus

 Electronic relaxation 2 (details)
   IALGO  =     38    algorithm
   LDIAG  =      T    sub-space diagonalisation (order eigenvalues)
   LSUBROT=      T    optimize rotation matrix (better conditioning)
   TURBO    =      0    0=normal 1=particle mesh
   IRESTART =      0    0=no restart 2=restart with 2 vectors
   NREBOOT  =      0    no. of reboots
   NMIN     =      0    reboot dimension
   EREF     =   0.00    reference energy to select bands
   IMIX   =      4    mixing-type and parameters
     AMIX     =   0.40;   BMIX     =  1.00
     AMIX_MAG =   1.60;   BMIX_MAG =  1.00
     AMIN     =   0.10
     WC   =   100.;   INIMIX=   1;  MIXPRE=   1;  MAXMIX= -45

 Intra band minimization:
   WEIMIN = 0.0000     energy-eigenvalue tresh-hold
   EBREAK =  0.28E-07  absolut break condition
   DEPER  =   0.30     relativ break condition

   TIME   =   0.40     timestep for ELM

  volume/ion in A,a.u.               =      11.86        80.03
  Fermi-wavevector in a.u.,A,eV,Ry     =   1.596555  3.017051 34.681075  2.548987
  Thomas-Fermi vector in A             =   2.694299

 Write flags
   LWAVE  =      T    write WAVECAR
   LCHARG =      T    write CHGCAR
   LVTOT  =      F    write LOCPOT, total local potential
   LVHAR  =      F    write LOCPOT, Hartree potential only
   LELF   =      F    write electronic localiz. function (ELF)
   LORBIT =     11    0 simple, 1 ext, 2 COOP (PROOUT)

 Dipole corrections
   LMONO  =      F    monopole corrections only (constant potential shift)
   LDIPOL =      F    correct potential (dipole corrections)
   IDIPOL =      0    1-x, 2-y, 3-z, 4-all directions
   EPSILON=  1.0000000 bulk dielectric constant

 Exchange correlation treatment:
   GGA     =    PS    GGA type
   VOSKOWN=      0    Vosko Wilk Nusair interpolation
   LHFCALC =     F    Hartree Fock is set to
   LHFONE  =     F    Hartree Fock one center treatment
   AEXX    =    0.0000 exact exchange contribution

 Linear response parameters
   LEPSILON=     F    determine dielectric tensor
   LRPA    =     F    only Hartree local field effects (RPA)
   LNABLA  =     F    use nabla operator in PAW spheres
   LVEL    =     F    velocity operator in full k-point grid
   LINTERFAST=   F  fast interpolation
   KINTER  =     0    interpolate to denser k-point grid
   CSHIFT  =0.1000    complex shift for real part using Kramers Kronig
   OMEGAMAX=  -1.0    maximum frequency
   DEG_THRESHOLD= 0.2000000E-02 threshold for treating states as degnerate
   RTIME   =    0.100 relaxation time in fs

 Orbital magnetization related:
   ORBITALMAG=     F  switch on orbital magnetization
   LCHIMAG   =     F  perturbation theory with respect to B field
   DQ        =  0.001000  dq finite difference perturbation B field

 Static calculation
 charge density and potential remain constant during run
 non-spin polarized calculation
 Variant of blocked Davidson
 Davidson routine will perform the subspace rotation
 perform sub-space diagonalisation
    after iterative eigenvector-optimisation
 no mixing
 using additional bands            3
 reciprocal scheme for non local part
 use partial core corrections
 calculate Harris-corrections to forces
   (improved forces if not selfconsistent)
 use gradient corrections
 WARNING: stress and forces are not correct
  (second derivative of E(xc) not defined)
 use of overlap-Matrix (Vanderbilt PP)
 Methfessel and Paxton  Order N= 1 SIGMA  =   0.20

  energy-cutoff  :      450.00
  volume of cell :       11.86
      direct lattice vectors                 reciprocal lattice vectors
     1.810000000  1.810000000  0.000000000     0.276243094  0.276243094 -0.276243094
     0.000000000  1.810000000  1.810000000    -0.276243094  0.276243094  0.276243094
     1.810000000  0.000000000  1.810000000     0.276243094 -0.276243094  0.276243094

  length of vectors
     2.559726548  2.559726548  2.559726548     0.478467074  0.478467074  0.478467074

 k-points in units of 2pi/SCALE and weight: kpoints for bandstructure L-G-X-U K-G
   0.50000000  0.50000000  0.50000000       0.006
   0.48717949  0.48717949  0.48717949       0.006
   0.47435897  0.47435897  0.47435897       0.006
   0.46153846  0.46153846  0.46153846       0.006
   0.44871795  0.44871795  0.44871795       0.006
   0.43589744  0.43589744  0.43589744       0.006
   0.42307692  0.42307692  0.42307692       0.006
   0.41025641  0.41025641  0.41025641       0.006
   0.39743590  0.39743590  0.39743590       0.006
   0.38461538  0.38461538  0.38461538       0.006
   0.37179487  0.37179487  0.37179487       0.006
   0.35897436  0.35897436  0.35897436       0.006
   0.34615385  0.34615385  0.34615385       0.006
   0.33333333  0.33333333  0.33333333       0.006
   0.32051282  0.32051282  0.32051282       0.006
   0.30769231  0.30769231  0.30769231       0.006
   0.29487179  0.29487179  0.29487179       0.006
   0.28205128  0.28205128  0.28205128       0.006
   0.26923077  0.26923077  0.26923077       0.006
   0.25641026  0.25641026  0.25641026       0.006
   0.24358974  0.24358974  0.24358974       0.006
   0.23076923  0.23076923  0.23076923       0.006
   0.21794872  0.21794872  0.21794872       0.006
   0.20512821  0.20512821  0.20512821       0.006
   0.19230769  0.19230769  0.19230769       0.006
   0.17948718  0.17948718  0.17948718       0.006
   0.16666667  0.16666667  0.16666667       0.006
   0.15384615  0.15384615  0.15384615       0.006
   0.14102564  0.14102564  0.14102564       0.006
   0.12820513  0.12820513  0.12820513       0.006
   0.11538462  0.11538462  0.11538462       0.006
   0.10256410  0.10256410  0.10256410       0.006
   0.08974359  0.08974359  0.08974359       0.006
   0.07692308  0.07692308  0.07692308       0.006
   0.06410256  0.06410256  0.06410256       0.006
   0.05128205  0.05128205  0.05128205       0.006
   0.03846154  0.03846154  0.03846154       0.006
   0.02564103  0.02564103  0.02564103       0.006
   0.01282051  0.01282051  0.01282051       0.006
   0.00000000  0.00000000  0.00000000       0.006
   0.00000000  0.00000000  0.00000000       0.006
   0.00000000  0.00000000  0.02564103       0.006
   0.00000000  0.00000000  0.05128205       0.006
   0.00000000  0.00000000  0.07692308       0.006
   0.00000000  0.00000000  0.10256410       0.006
   0.00000000  0.00000000  0.12820513       0.006
   0.00000000  0.00000000  0.15384615       0.006
   0.00000000  0.00000000  0.17948718       0.006
   0.00000000  0.00000000  0.20512821       0.006
   0.00000000  0.00000000  0.23076923       0.006
[...]
   0.00000000  0.00000000  0.00000000       0.006

 position of ions in fractional coordinates (direct lattice)
   0.00000000  0.00000000  0.00000000

 position of ions in cartesian coordinates  (Angst):
   0.00000000  0.00000000  0.00000000

 k-point  1 :   0.5000 0.5000 0.5000  plane waves:     266
 k-point  2 :   0.4872 0.4872 0.4872  plane waves:     266
 k-point  3 :   0.4744 0.4744 0.4744  plane waves:     266
 k-point  4 :   0.4615 0.4615 0.4615  plane waves:     266
 k-point  5 :   0.4487 0.4487 0.4487  plane waves:     260
 k-point  6 :   0.4359 0.4359 0.4359  plane waves:     254
 k-point  7 :   0.4231 0.4231 0.4231  plane waves:     254
 k-point  8 :   0.4103 0.4103 0.4103  plane waves:     257
 k-point  9 :   0.3974 0.3974 0.3974  plane waves:     257
 k-point 10 :   0.3846 0.3846 0.3846  plane waves:     256
 k-point 11 :   0.3718 0.3718 0.3718  plane waves:     256
 k-point 12 :   0.3590 0.3590 0.3590  plane waves:     256
 k-point 13 :   0.3462 0.3462 0.3462  plane waves:     256
 k-point 14 :   0.3333 0.3333 0.3333  plane waves:     256
 k-point 15 :   0.3205 0.3205 0.3205  plane waves:     256
 k-point 16 :   0.3077 0.3077 0.3077  plane waves:     256
 k-point 17 :   0.2949 0.2949 0.2949  plane waves:     256
 k-point 18 :   0.2821 0.2821 0.2821  plane waves:     262
 k-point 19 :   0.2692 0.2692 0.2692  plane waves:     262
 k-point 20 :   0.2564 0.2564 0.2564  plane waves:     262
 k-point 21 :   0.2436 0.2436 0.2436  plane waves:     265
 k-point 22 :   0.2308 0.2308 0.2308  plane waves:     265
 k-point 23 :   0.2179 0.2179 0.2179  plane waves:     271
 k-point 24 :   0.2051 0.2051 0.2051  plane waves:     271
 k-point 25 :   0.1923 0.1923 0.1923  plane waves:     271
 k-point 26 :   0.1795 0.1795 0.1795  plane waves:     271
 k-point 27 :   0.1667 0.1667 0.1667  plane waves:     268
 k-point 28 :   0.1538 0.1538 0.1538  plane waves:     271
 k-point 29 :   0.1410 0.1410 0.1410  plane waves:     271
 k-point 30 :   0.1282 0.1282 0.1282  plane waves:     271
 k-point 31 :   0.1154 0.1154 0.1154  plane waves:     271
 k-point 32 :   0.1026 0.1026 0.1026  plane waves:     265
 k-point 33 :   0.0897 0.0897 0.0897  plane waves:     265
 k-point 34 :   0.0769 0.0769 0.0769  plane waves:     265
 k-point 35 :   0.0641 0.0641 0.0641  plane waves:     265
 k-point 36 :   0.0513 0.0513 0.0513  plane waves:     265
 k-point 37 :   0.0385 0.0385 0.0385  plane waves:     259
 k-point 38 :   0.0256 0.0256 0.0256  plane waves:     259
 k-point 39 :   0.0128 0.0128 0.0128  plane waves:     259
 k-point 40 :   0.0000 0.0000 0.0000  plane waves:     259
 k-point 41 :   0.0000 0.0000 0.0000  plane waves:     259
 k-point 42 :   0.0000 0.0128 0.0128  plane waves:     259
 k-point 43 :   0.0000 0.0256 0.0256  plane waves:     259
 k-point 44 :   0.0000 0.0385 0.0385  plane waves:     263
 k-point 45 :   0.0000 0.0513 0.0513  plane waves:     263
 k-point 46 :   0.0000 0.0641 0.0641  plane waves:     263
 k-point 47 :   0.0000 0.0769 0.0769  plane waves:     263
 k-point 48 :   0.0000 0.0897 0.0897  plane waves:     263
 k-point 49 :   0.0000 0.1026 0.1026  plane waves:     263
 k-point 50 :   0.0000 0.1154 0.1154  plane waves:     267
 k-point 51 :   0.0000 0.1282 0.1282  plane waves:     267
 k-point 52 :   0.0000 0.1410 0.1410  plane waves:     266
 k-point 53 :   0.0000 0.1538 0.1538  plane waves:     266
 k-point 54 :   0.0000 0.1667 0.1667  plane waves:     266
 k-point 55 :   0.0000 0.1795 0.1795  plane waves:     266
 k-point 56 :   0.0000 0.1923 0.1923  plane waves:     258
 k-point 57 :   0.0000 0.2051 0.2051  plane waves:     254
 k-point 58 :   0.0000 0.2179 0.2179  plane waves:     258
 k-point 59 :   0.0000 0.2308 0.2308  plane waves:     258
 k-point 60 :   0.0000 0.2436 0.2436  plane waves:     258
[...]
 k-point 85 :   0.0256 0.5128 0.5128  plane waves:     254
 k-point 86 :   0.0321 0.5160 0.5160  plane waves:     254
 k-point 87 :   0.0385 0.5192 0.5192  plane waves:     254
 k-point 88 :   0.0449 0.5224 0.5224  plane waves:     254
 k-point 89 :   0.0513 0.5256 0.5256  plane waves:     254
 k-point 90 :   0.0577 0.5288 0.5288  plane waves:     254
 k-point 91 :   0.0641 0.5321 0.5321  plane waves:     254
 k-point 92 :   0.0705 0.5353 0.5353  plane waves:     254
 k-point 93 :   0.0769 0.5385 0.5385  plane waves:     250
 k-point 94 :   0.0833 0.5417 0.5417  plane waves:     250
 k-point 95 :   0.0897 0.5449 0.5449  plane waves:     250
 k-point 96 :   0.0962 0.5481 0.5481  plane waves:     250
 k-point 97 :   0.1026 0.5513 0.5513  plane waves:     250
 k-point 98 :   0.1090 0.5545 0.5545  plane waves:     250
 k-point 99 :   0.1154 0.5577 0.5577  plane waves:     256
 k-point ** :   0.1218 0.5609 0.5609  plane waves:     256
 k-point ** :   0.1282 0.5641 0.5641  plane waves:     256
 k-point ** :   0.1346 0.5673 0.5673  plane waves:     256
 k-point ** :   0.1410 0.5705 0.5705  plane waves:     256
 k-point ** :   0.1474 0.5737 0.5737  plane waves:     256
 k-point ** :   0.1538 0.5769 0.5769  plane waves:     256
 k-point ** :   0.1603 0.5801 0.5801  plane waves:     256
 k-point ** :   0.1667 0.5833 0.5833  plane waves:     256
 k-point ** :   0.1731 0.5865 0.5865  plane waves:     256
 k-point ** :   0.1795 0.5897 0.5897  plane waves:     252
 k-point ** :   0.1859 0.5929 0.5929  plane waves:     252
 k-point ** :   0.1923 0.5962 0.5962  plane waves:     252
 k-point ** :   0.1987 0.5994 0.5994  plane waves:     252
 k-point ** :   0.2051 0.6026 0.6026  plane waves:     252
 k-point ** :   0.2115 0.6058 0.6058  plane waves:     252
 k-point ** :   0.2179 0.6090 0.6090  plane waves:     252
 k-point ** :   0.2244 0.6122 0.6122  plane waves:     252
 k-point ** :   0.2308 0.6154 0.6154  plane waves:     252
 k-point ** :   0.2372 0.6186 0.6186  plane waves:     252
 k-point ** :   0.2436 0.6218 0.6218  plane waves:     264
 k-point ** :   0.2500 0.6250 0.6250  plane waves:     264
 k-point ** :   0.3750 0.7500 0.3750  plane waves:     264
 k-point ** :   0.3654 0.7308 0.3654  plane waves:     258
 k-point ** :   0.3558 0.7115 0.3558  plane waves:     258
 k-point ** :   0.3462 0.6923 0.3462  plane waves:     258
 k-point ** :   0.3365 0.6731 0.3365  plane waves:     256
 k-point ** :   0.3269 0.6538 0.3269  plane waves:     256
 k-point ** :   0.3173 0.6346 0.3173  plane waves:     256
 k-point ** :   0.3077 0.6154 0.3077  plane waves:     254
 k-point ** :   0.2981 0.5962 0.2981  plane waves:     258
 k-point ** :   0.2885 0.5769 0.2885  plane waves:     256
 k-point ** :   0.2788 0.5577 0.2788  plane waves:     256
 k-point ** :   0.2692 0.5385 0.2692  plane waves:     256
 k-point ** :   0.2596 0.5192 0.2596  plane waves:     256
 k-point ** :   0.2500 0.5000 0.2500  plane waves:     256
 k-point ** :   0.2404 0.4808 0.2404  plane waves:     256
 k-point ** :   0.2308 0.4615 0.2308  plane waves:     264
 k-point ** :   0.2212 0.4423 0.2212  plane waves:     264
 k-point ** :   0.2115 0.4231 0.2115  plane waves:     265
 k-point ** :   0.2019 0.4038 0.2019  plane waves:     265
 k-point ** :   0.1923 0.3846 0.1923  plane waves:     265
 k-point ** :   0.1827 0.3654 0.1827  plane waves:     265
 k-point ** :   0.1731 0.3462 0.1731  plane waves:     265
 k-point ** :   0.1635 0.3269 0.1635  plane waves:     267
 k-point ** :   0.1538 0.3077 0.1538  plane waves:     263
 k-point ** :   0.1442 0.2885 0.1442  plane waves:     263
 k-point ** :   0.1346 0.2692 0.1346  plane waves:     263
 k-point ** :   0.1250 0.2500 0.1250  plane waves:     273
 k-point ** :   0.1154 0.2308 0.1154  plane waves:     269
 k-point ** :   0.1058 0.2115 0.1058  plane waves:     265
 k-point ** :   0.0962 0.1923 0.0962  plane waves:     267
 k-point ** :   0.0865 0.1731 0.0865  plane waves:     267
 k-point ** :   0.0769 0.1538 0.0769  plane waves:     267
 k-point ** :   0.0673 0.1346 0.0673  plane waves:     267
 k-point ** :   0.0577 0.1154 0.0577  plane waves:     267
 k-point ** :   0.0481 0.0962 0.0481  plane waves:     265
 k-point ** :   0.0385 0.0769 0.0385  plane waves:     265
 k-point ** :   0.0288 0.0577 0.0288  plane waves:     261
 k-point ** :   0.0192 0.0385 0.0192  plane waves:     259
 k-point ** :   0.0096 0.0192 0.0096  plane waves:     259
 k-point ** :   0.0000 0.0000 0.0000  plane waves:     259

 maximum number of plane-waves:       273
 maximum index in each direction:
   IXMAX=    4   IYMAX=    4   IZMAX=    4
   IXMIN=   -4   IYMIN=   -5   IZMIN=   -5

 NGX is ok and might be reduce to  18
 WARNING: aliasing errors must be expected set NGY to  20 to avoid them
 WARNING: aliasing errors must be expected set NGZ to  20 to avoid them
 aliasing errors are usually negligible using standard VASP settings
 and one can safely disregard these warnings

 initial charge density was supplied:
 number of electron      11.0000013 magnetization
 keeping initial charge density in first step

 Maximum index for augmentation-charges        13811 (set IRDMAX)

 First call to EWALD:  gamma=   0.777
 Maximum number of real-space cells 3x 3x 3
 Maximum number of reciprocal cells 3x 3x 3

----------------------------------------- Iteration    1(   1)  ---------------------------------------

 eigenvalue-minimisations  :  2922
 total energy-change (2. order) : 0.3189609E+02  (-0.5347304E+03)
 number of electron      11.0000013 magnetization
 augmentation part       11.0000013 magnetization

 Free energy of the ion-electron system (eV)
  alpha Z        PSCENC =        61.66610287
  Ewald energy   TEWEN  =     -1103.39027675
  -1/2 Hartree   DENC   =      -338.17460827
  -exchange  EXHF       =         0.00000000
  -V(xc)+E(xc)   XCENC  =        45.39445183
  PAW double counting   =      1317.14621761    -1424.80450175
  entropy T*S    EENTRO =         0.00062481
  eigenvalues    EBANDS =        83.75396632
  atomic energy  EATOM  =      1390.30410994
  free energy    TOTEN  =        31.89608660 eV

  energy without entropy =       31.89546179  energy(sigma->0) =       31.89587833

[...]

 eigenvalue-minimisations  :  2920
 total energy-change (2. order) :-0.3820153E+02  (-0.3621893E+02)
 number of electron      11.0000013 magnetization
 augmentation part       11.0000013 magnetization

[...]

----------------------------------------- Iteration    1(   6)  ---------------------------------------

 eigenvalue-minimisations  :  3674
 total energy-change (2. order) :-0.4876824E-06  (-0.4873977E-06)
 number of electron      11.0000013 magnetization
 augmentation part       11.0000013 magnetization

 Free energy of the ion-electron system (eV)
  alpha Z        PSCENC =        61.66610287
  Ewald energy   TEWEN  =     -1103.39027675
  -1/2 Hartree   DENC   =      -338.17460827
  -exchange  EXHF       =         0.00000000
  -V(xc)+E(xc)   XCENC  =        45.39445183
  PAW double counting   =      1317.14621761    -1424.80450175
  entropy T*S    EENTRO =         0.00467360
  eigenvalues    EBANDS =        45.14964655
  atomic energy  EATOM  =      1390.30410994
  free energy    TOTEN  =        -6.70418437 eV

  energy without entropy =       -6.70885797  energy(sigma->0) =       -6.70574224

 average (electrostatic) potential at core
  the test charge radii are     0.9430
  (the norm of the test charge is              1.0000)
       1 -63.6188

 E-fermi :   5.9307     XC(G=0): -12.8837     alpha+bet :-13.3685

 k-point   1 :       0.5000    0.5000    0.5000
  band No.  band energies     occupation
      1       2.2839      2.00000
      2       4.3021      2.00000
      3       4.3021      2.00000
      4       5.7253      2.05541
      5       5.7253      2.05541
      6       6.3216     -0.01848
      7      11.0667      0.00000
      8      28.3935      0.00000
      9      29.2973      0.00000

[...]

 k-point 160 :       0.0000    0.0000    0.0000
  band No.  band energies     occupation
      1      -2.0089      2.00000
      2       4.3409      2.00000
      3       4.3409      2.00000
      4       4.3409      2.00000
      5       5.1527      2.00000
      6       5.1527      2.00000
      7      29.8992      0.00000
      8      32.4789      0.00000
      9      32.4790      0.00000

 soft charge-density along one line, spin component           1
         0         1         2         3         4         5         6         7         8         9
x     0.0000    0.0000    0.0000    0.0000    0.0000    0.0000    0.0000    0.0000    0.0000    0.0000
x     0.0000    0.0000    0.0000    0.0000    0.0000    0.0000    0.0000    0.0000    0.0000    0.0000
y     0.0000    0.0000    0.0000    0.0000    0.0000    0.0000    0.0000    0.0000    0.0000    0.0000
y     0.0000    0.0000    0.0000    0.0000    0.0000    0.0000    0.0000    0.0000    0.0000    0.0000
z     0.0000    0.0000    0.0000    0.0000    0.0000    0.0000    0.0000    0.0000    0.0000    0.0000
z     0.0000    0.0000    0.0000    0.0000    0.0000    0.0000    0.0000    0.0000    0.0000    0.0000
 total charge-density along one line
x    11.0000    0.0000    5.4981    0.0000    1.5448    0.0000    0.1178    0.0000   -0.0160    0.0000
x     0.0063    0.0000   -0.0022    0.0000    0.0008    0.0000   -0.0003    0.0000    0.0001    0.0000
x     0.0000    0.0000    0.0000    0.0000    0.0000    0.0000    0.0000    0.0000    0.0000    0.0000
x     0.0000    0.0000    0.0000    0.0000    0.0000    0.0000    0.0000    0.0000
y    11.0000    0.0000    5.4981    0.0000    1.5448    0.0000    0.1178    0.0000   -0.0160    0.0000
y     0.0063    0.0000   -0.0022    0.0000    0.0008    0.0000   -0.0003    0.0000    0.0001    0.0000
y     0.0000    0.0000    0.0000    0.0000    0.0000    0.0000    0.0000    0.0000    0.0000    0.0000
y     0.0000    0.0000    0.0000    0.0000    0.0000    0.0000    0.0000    0.0000
z    11.0000    0.0000    5.4981    0.0000    1.5448    0.0000    0.1178    0.0000   -0.0160    0.0000
z     0.0063    0.0000   -0.0022    0.0000    0.0008    0.0000   -0.0003    0.0000    0.0001    0.0000
z     0.0000    0.0000    0.0000    0.0000    0.0000    0.0000    0.0000    0.0000    0.0000    0.0000
z     0.0000    0.0000    0.0000    0.0000    0.0000    0.0000    0.0000    0.0000

------------------------ aborting loop because EDIFF is reached ----------------------------------------

 total charge

# of ion     s       p       d       tot
  1        0.592   0.200   9.271  10.063

  FORCE on cell =-STRESS in cart. coord.  units (eV):
  Direction    XX          YY          ZZ          XY          YZ          ZX
  Alpha Z    61.66610    61.66610    61.66610
  Ewald    -367.79677  -367.79677  -367.79677     0.00000     0.00000     0.00000
  Hartree   116.37532   116.37532   116.37532     0.00000     0.00000     0.00000
  E(xc)     -63.38917   -63.38917   -63.38917     0.00000     0.00000     0.00000
  Local      94.66271    94.66271    94.66271     0.00007     0.00007     0.00007
  n-local   -12.98864   -12.97904   -16.05368    -0.62552    -1.03371    -0.26301
  augment    95.31449    95.31449    95.31449    -0.00004    -0.00004    -0.00004
  Kinetic    87.55516    87.84032    89.65421     0.73446     0.96590     0.72759
  Fock        0.00000     0.00000     0.00000     0.00000     0.00000     0.00000
  Total      11.17545    11.17545    11.17545     0.00000     0.00000     0.00000
  in kB    1509.76690  1509.76690  1509.76690     0.00000     0.00000     0.00000

 VOLUME and BASIS-vectors are now :
  energy-cutoff  :      450.00
  volume of cell :       11.86
      direct lattice vectors                 reciprocal lattice vectors
     1.810000000  1.810000000  0.000000000     0.276243094  0.276243094 -0.276243094
     0.000000000  1.810000000  1.810000000    -0.276243094  0.276243094  0.276243094
     1.810000000  0.000000000  1.810000000     0.276243094 -0.276243094  0.276243094

  length of vectors
     2.559726548  2.559726548  2.559726548     0.478467074  0.478467074  0.478467074

 FORCES acting on ions
    electron-ion (+dipol)            ewald-force                    non-local-force                 convergence-correction
   -.559E-13 -.512E-13 0.569E-13   -.206E-14 -.151E-14 0.276E-15   0.000E+00 0.000E+00 0.000E+00   -.351E-14 0.344E-14 -.895E-14
   -.559E-13 -.512E-13 0.569E-13   -.206E-14 -.151E-14 0.276E-15   0.000E+00 0.000E+00 0.000E+00   -.351E-14 0.344E-14 -.895E-14

 POSITION                                       TOTAL-FORCE (eV/Angst)
      0.00000      0.00000      0.00000         0.000000      0.000000      0.000000
    total drift:                                0.000000      0.000000      0.000000

  FREE ENERGIE OF THE ION-ELECTRON SYSTEM (eV)
  free  energy   TOTEN  =        -6.70418437 eV

  energy  without entropy=       -6.70885797  energy(sigma->0) =       -6.70574224

 writing wavefunctions

 total charge

# of ion     s       p       d       tot
  1        0.592   0.200   9.271  10.063