 vasp.5.3.2 13Sep12 (build Nov 15 2012 16:01:14) complex

 INCAR:
 POTCAR:    PAW_PBE Cu 22Jun2005
 POTCAR:    PAW_PBE Cu 22Jun2005
   VRHFIN =Cu: d10 p1

   TITEL  = PAW_PBE Cu 22Jun2005
   POMASS =   63.546; ZVAL   =   11.000    mass and valenz
   ENMAX  =  295.446; ENMIN  =  221.585 eV

  PAW_PBE Cu 22Jun2005                  :

 POSCAR: Cu metal rhomboedrique
  positions in direct lattice
 exchange correlation table for  LEXCH =       14
   RHO(1)=    0.500       N(1)  =     2000
   RHO(2)=  100.500       N(2)  =     4000

 ion  position               nearest neighbor table
   1  0.000  0.000  0.000-

  LATTYP: Found a face centered cubic cell.
 ALAT       =     3.6200000000

  Lattice vectors:

 A1 = (   1.8100000000,   1.8100000000,   0.0000000000)
 A2 = (   0.0000000000,   1.8100000000,   1.8100000000)
 A3 = (   1.8100000000,   0.0000000000,   1.8100000000)

Analysis of symmetry for initial positions (statically):
 Subroutine PRICEL returns:
 Original cell was already a primitive cell.

 Routine SETGRP: Setting up the symmetry group for a
 face centered cubic supercell.

 Subroutine GETGRP returns: Found 48 space group operations
 (whereof 48 operations were pure point group operations)
 out of a pool of 48 trial point group operations.

The static configuration has the point symmetry O_h .

Analysis of symmetry for dynamics (positions and initial velocities):
 Subroutine PRICEL returns:
 Original cell was already a primitive cell.

 Routine SETGRP: Setting up the symmetry group for a
 face centered cubic supercell.

 Subroutine GETGRP returns: Found 48 space group operations
 (whereof 48 operations were pure point group operations)
 out of a pool of 48 trial point group operations.

The dynamic configuration has the point symmetry O_h .

 KPOINTS: K-points grid

Automatic generation of k-mesh.
Space group operators:
 irot       det(A)        alpha          n_x          n_y          n_z        tau_x        tau_y        tau_z
    1     1.000000     0.000000     1.000000     0.000000     0.000000     0.000000     0.000000     0.000000
    2    -1.000000     0.000000     1.000000     0.000000     0.000000     0.000000     0.000000     0.000000
    3     1.000000   120.000000    -0.577350    -0.577350    -0.577350     0.000000     0.000000     0.000000
    4    -1.000000   120.000000    -0.577350    -0.577350    -0.577350     0.000000     0.000000     0.000000
    5     1.000000   120.000000     0.577350     0.577350     0.577350     0.000000     0.000000     0.000000
    6    -1.000000   120.000000     0.577350     0.577350     0.577350     0.000000     0.000000     0.000000
    7     1.000000    90.000000     0.000000    -1.000000     0.000000     0.000000     0.000000     0.000000
    8    -1.000000    90.000000     0.000000    -1.000000     0.000000     0.000000     0.000000     0.000000
    9     1.000000   180.000000     0.707107     0.707107     0.000000     0.000000     0.000000     0.000000
   10    -1.000000   180.000000     0.707107     0.707107     0.000000     0.000000     0.000000     0.000000
   11     1.000000    90.000000     1.000000     0.000000     0.000000     0.000000     0.000000     0.000000
   12    -1.000000    90.000000     1.000000     0.000000     0.000000     0.000000     0.000000     0.000000
   13     1.000000   180.000000     0.000000     1.000000     0.000000     0.000000     0.000000     0.000000
   14    -1.000000   180.000000     0.000000     1.000000     0.000000     0.000000     0.000000     0.000000
   15     1.000000   120.000000     0.577350     0.577350    -0.577350     0.000000     0.000000     0.000000
   16    -1.000000   120.000000     0.577350     0.577350    -0.577350     0.000000     0.000000     0.000000
   17     1.000000   120.000000     0.577350    -0.577350    -0.577350     0.000000     0.000000     0.000000
   18    -1.000000   120.000000     0.577350    -0.577350    -0.577350     0.000000     0.000000     0.000000
   19     1.000000    90.000000     0.000000     1.000000     0.000000     0.000000     0.000000     0.000000
   20    -1.000000    90.000000     0.000000     1.000000     0.000000     0.000000     0.000000     0.000000
   21     1.000000    90.000000     0.000000     0.000000    -1.000000     0.000000     0.000000     0.000000
   22    -1.000000    90.000000     0.000000     0.000000    -1.000000     0.000000     0.000000     0.000000
   23     1.000000   180.000000     0.000000     0.707107     0.707107     0.000000     0.000000     0.000000
   24    -1.000000   180.000000     0.000000     0.707107     0.707107     0.000000     0.000000     0.000000
   25     1.000000   120.000000    -0.577350     0.577350     0.577350     0.000000     0.000000     0.000000
   26    -1.000000   120.000000    -0.577350     0.577350     0.577350     0.000000     0.000000     0.000000
   27     1.000000   120.000000    -0.577350     0.577350    -0.577350     0.000000     0.000000     0.000000
   28    -1.000000   120.000000    -0.577350     0.577350    -0.577350     0.000000     0.000000     0.000000
   29     1.000000   180.000000     0.000000     0.000000     1.000000     0.000000     0.000000     0.000000
   30    -1.000000   180.000000     0.000000     0.000000     1.000000     0.000000     0.000000     0.000000
   31     1.000000    90.000000    -1.000000     0.000000     0.000000     0.000000     0.000000     0.000000
   32    -1.000000    90.000000    -1.000000     0.000000     0.000000     0.000000     0.000000     0.000000
   33     1.000000   180.000000     0.707107     0.000000     0.707107     0.000000     0.000000     0.000000
   34    -1.000000   180.000000     0.707107     0.000000     0.707107     0.000000     0.000000     0.000000
   35     1.000000    90.000000     0.000000     0.000000     1.000000     0.000000     0.000000     0.000000
   36    -1.000000    90.000000     0.000000     0.000000     1.000000     0.000000     0.000000     0.000000
   37     1.000000   120.000000    -0.577350    -0.577350     0.577350     0.000000     0.000000     0.000000
   38    -1.000000   120.000000    -0.577350    -0.577350     0.577350     0.000000     0.000000     0.000000
   39     1.000000   180.000000     1.000000     0.000000     0.000000     0.000000     0.000000     0.000000
   40    -1.000000   180.000000     1.000000     0.000000     0.000000     0.000000     0.000000     0.000000
   41     1.000000   120.000000     0.577350    -0.577350     0.577350     0.000000     0.000000     0.000000
   42    -1.000000   120.000000     0.577350    -0.577350     0.577350     0.000000     0.000000     0.000000
   43     1.000000   180.000000     0.707107    -0.707107     0.000000     0.000000     0.000000     0.000000
   44    -1.000000   180.000000     0.707107    -0.707107     0.000000     0.000000     0.000000     0.000000
   45     1.000000   180.000000     0.707107     0.000000    -0.707107     0.000000     0.000000     0.000000
   46    -1.000000   180.000000     0.707107     0.000000    -0.707107     0.000000     0.000000     0.000000
   47     1.000000   180.000000     0.000000    -0.707107     0.707107     0.000000     0.000000     0.000000
   48    -1.000000   180.000000     0.000000    -0.707107     0.707107     0.000000     0.000000     0.000000

 Subroutine IBZKPT returns following result:

 Found   1771 irreducible k-points:

 Following reciprocal coordinates:
            Coordinates               Weight
  0.000000  0.000000  0.000000      1.000000
  0.024390  0.000000  0.000000      8.000000
  0.048780  0.000000  0.000000      8.000000
  0.073171  0.000000  0.000000      8.000000
  0.097561  0.000000  0.000000      8.000000
  0.121951  0.000000  0.000000      8.000000
  0.146341  0.000000  0.000000      8.000000
  0.170732  0.000000  0.000000      8.000000
  0.195122  0.000000  0.000000      8.000000
  0.219512  0.000000  0.000000      8.000000
  0.243902  0.000000  0.000000      8.000000
  0.268293  0.000000  0.000000      8.000000
  0.292683  0.000000  0.000000      8.000000
  0.317073  0.000000  0.000000      8.000000
  0.341463  0.000000  0.000000      8.000000
  0.365854  0.000000  0.000000      8.000000
  0.390244  0.000000  0.000000      8.000000
  0.414634  0.000000  0.000000      8.000000
  0.439024  0.000000  0.000000      8.000000
  0.463415  0.000000  0.000000      8.000000
  0.487805  0.000000  0.000000      8.000000
  0.024390  0.024390  0.000000      6.000000
  0.048780  0.024390  0.000000     24.000000
  0.073171  0.024390  0.000000     24.000000
  0.097561  0.024390  0.000000     24.000000
  0.121951  0.024390  0.000000     24.000000
  0.146341  0.024390  0.000000     24.000000
  0.170732  0.024390  0.000000     24.000000
  0.195122  0.024390  0.000000     24.000000
  0.219512  0.024390  0.000000     24.000000
  0.243902  0.024390  0.000000     24.000000
  0.268293  0.024390  0.000000     24.000000
  0.292683  0.024390  0.000000     24.000000
  0.317073  0.024390  0.000000     24.000000
  0.341463  0.024390  0.000000     24.000000
  0.365854  0.024390  0.000000     24.000000
  0.390244  0.024390  0.000000     24.000000
  0.414634  0.024390  0.000000     24.000000
  0.439024  0.024390  0.000000     24.000000
  0.463415  0.024390  0.000000     24.000000
  0.487805  0.024390  0.000000     24.000000
 -0.487805  0.024390  0.000000     24.000000
 -0.463415  0.024390  0.000000     24.000000
 -0.439024  0.024390  0.000000     24.000000
 -0.414634  0.024390  0.000000     24.000000
 -0.390244  0.024390  0.000000     24.000000
 -0.365854  0.024390  0.000000     24.000000
 -0.341463  0.024390  0.000000     24.000000
 -0.317073  0.024390  0.000000     24.000000
 -0.292683  0.024390  0.000000     24.000000
 -0.268293  0.024390  0.000000     24.000000
 -0.243902  0.024390  0.000000     24.000000
 -0.219512  0.024390  0.000000     24.000000
 -0.195122  0.024390  0.000000     24.000000
 -0.170732  0.024390  0.000000     24.000000
 -0.146341  0.024390  0.000000     24.000000
 -0.121951  0.024390  0.000000     24.000000
 -0.097561  0.024390  0.000000     24.000000
 -0.073171  0.024390  0.000000     24.000000
 -0.048780  0.024390  0.000000     24.000000
[...]
 -0.317073  0.463415  0.195122     48.000000
 -0.292683  0.463415  0.195122     48.000000
 -0.268293  0.463415  0.195122     24.000000
 -0.317073  0.487805  0.195122     24.000000
 -0.292683  0.487805  0.195122     24.000000
 -0.341463  0.439024  0.219512     24.000000
 -0.317073  0.439024  0.219512     48.000000
 -0.292683  0.439024  0.219512     48.000000
 -0.317073  0.463415  0.219512     24.000000
 -0.292683  0.463415  0.219512     48.000000
 -0.268293  0.463415  0.219512     48.000000
 -0.243902  0.463415  0.219512     24.000000
 -0.292683  0.487805  0.219512     24.000000
 -0.268293  0.487805  0.219512     24.000000
 -0.268293  0.487805  0.243902     24.000000

 Following cartesian coordinates:
            Coordinates               Weight
  0.000000  0.000000  0.000000      1.000000
  0.024390  0.024390 -0.024390      8.000000
  0.048780  0.048780 -0.048780      8.000000
  0.073171  0.073171 -0.073171      8.000000
  0.097561  0.097561 -0.097561      8.000000
  0.121951  0.121951 -0.121951      8.000000
  0.146341  0.146341 -0.146341      8.000000
[...]
 k-point 24 :   0.0732 0.0244 0.0000  plane waves:     265
 k-point 25 :   0.0976 0.0244 0.0000  plane waves:     267
 k-point 26 :   0.1220 0.0244 0.0000  plane waves:     267
 k-point 27 :   0.1463 0.0244 0.0000  plane waves:     269
 k-point 28 :   0.1707 0.0244 0.0000  plane waves:     269
 k-point 29 :   0.1951 0.0244 0.0000  plane waves:     271
 k-point 30 :   0.2195 0.0244 0.0000  plane waves:     271
 k-point 31 :   0.2439 0.0244 0.0000  plane waves:     265
 k-point 32 :   0.2683 0.0244 0.0000  plane waves:     265
 k-point 33 :   0.2927 0.0244 0.0000  plane waves:     258
 k-point 34 :   0.3171 0.0244 0.0000  plane waves:     256
 k-point 35 :   0.3415 0.0244 0.0000  plane waves:     256
 k-point 36 :   0.3659 0.0244 0.0000  plane waves:     256
 k-point 37 :   0.3902 0.0244 0.0000  plane waves:     256
 k-point 38 :   0.4146 0.0244 0.0000  plane waves:     259
 k-point 39 :   0.4390 0.0244 0.0000  plane waves:     261
 k-point 40 :   0.4634 0.0244 0.0000  plane waves:     262
 k-point 41 :   0.4878 0.0244 0.0000  plane waves:     262
 k-point 42 :  -0.4878 0.0244 0.0000  plane waves:     266
 k-point 43 :  -0.4634 0.0244 0.0000  plane waves:     262
 k-point 44 :  -0.4390 0.0244 0.0000  plane waves:     258
 k-point 45 :  -0.4146 0.0244 0.0000  plane waves:     260
 k-point 46 :  -0.3902 0.0244 0.0000  plane waves:     259
 k-point 47 :  -0.3659 0.0244 0.0000  plane waves:     256
 k-point 48 :  -0.3415 0.0244 0.0000  plane waves:     256
 k-point 49 :  -0.3171 0.0244 0.0000  plane waves:     256
 k-point 50 :  -0.2927 0.0244 0.0000  plane waves:     256
 k-point 51 :  -0.2683 0.0244 0.0000  plane waves:     261
 k-point 52 :  -0.2439 0.0244 0.0000  plane waves:     264
 k-point 53 :  -0.2195 0.0244 0.0000  plane waves:     266
 k-point 54 :  -0.1951 0.0244 0.0000  plane waves:     271
 k-point 55 :  -0.1707 0.0244 0.0000  plane waves:     270
 k-point 56 :  -0.1463 0.0244 0.0000  plane waves:     268
 k-point 57 :  -0.1220 0.0244 0.0000  plane waves:     269
 k-point 58 :  -0.0976 0.0244 0.0000  plane waves:     269
 k-point 59 :  -0.0732 0.0244 0.0000  plane waves:     267
 k-point 60 :  -0.0488 0.0244 0.0000  plane waves:     263
[...]
 k-point 85 :  -0.3902 0.0488 0.0000  plane waves:     260
 k-point 86 :  -0.3659 0.0488 0.0000  plane waves:     260
 k-point 87 :  -0.3415 0.0488 0.0000  plane waves:     258
 k-point 88 :  -0.3171 0.0488 0.0000  plane waves:     258
 k-point 89 :  -0.2927 0.0488 0.0000  plane waves:     258
 k-point 90 :  -0.2683 0.0488 0.0000  plane waves:     261
 k-point 91 :  -0.2439 0.0488 0.0000  plane waves:     262
 k-point 92 :  -0.2195 0.0488 0.0000  plane waves:     266
 k-point 93 :  -0.1951 0.0488 0.0000  plane waves:     266
 k-point 94 :  -0.1707 0.0488 0.0000  plane waves:     268
 k-point 95 :  -0.1463 0.0488 0.0000  plane waves:     266
 k-point 96 :  -0.1220 0.0488 0.0000  plane waves:     269
 k-point 97 :  -0.0976 0.0488 0.0000  plane waves:     269
 k-point 98 :  -0.0732 0.0488 0.0000  plane waves:     267
 k-point 99 :  -0.0488 0.0488 0.0000  plane waves:     265
 k-point ** :   0.0732 0.0732 0.0000  plane waves:     263
 k-point ** :   0.0976 0.0732 0.0000  plane waves:     265
 k-point ** :   0.1220 0.0732 0.0000  plane waves:     265
 k-point ** :   0.1463 0.0732 0.0000  plane waves:     267
 k-point ** :   0.1707 0.0732 0.0000  plane waves:     267
 k-point ** :   0.1951 0.0732 0.0000  plane waves:     267
 k-point ** :   0.2195 0.0732 0.0000  plane waves:     266
 k-point ** :   0.2439 0.0732 0.0000  plane waves:     265
 k-point ** :   0.2683 0.0732 0.0000  plane waves:     261
 k-point ** :   0.2927 0.0732 0.0000  plane waves:     261
 k-point ** :   0.3171 0.0732 0.0000  plane waves:     261
 k-point ** :   0.3415 0.0732 0.0000  plane waves:     261
 k-point ** :   0.3659 0.0732 0.0000  plane waves:     262
 k-point ** :   0.3902 0.0732 0.0000  plane waves:     260
 k-point ** :   0.4146 0.0732 0.0000  plane waves:     263
 k-point ** :   0.4390 0.0732 0.0000  plane waves:     261
 k-point ** :   0.4634 0.0732 0.0000  plane waves:     257
 k-point ** :   0.4878 0.0732 0.0000  plane waves:     258
 k-point ** :  -0.4878 0.0732 0.0000  plane waves:     258
 k-point ** :  -0.4634 0.0732 0.0000  plane waves:     256
 k-point ** :  -0.4390 0.0732 0.0000  plane waves:     256
 k-point ** :  -0.4146 0.0732 0.0000  plane waves:     254
 k-point ** :  -0.3902 0.0732 0.0000  plane waves:     258
 k-point ** :  -0.3659 0.0732 0.0000  plane waves:     258
 k-point ** :  -0.3415 0.0732 0.0000  plane waves:     258
 k-point ** :  -0.3171 0.0732 0.0000  plane waves:     260
 k-point ** :  -0.2927 0.0732 0.0000  plane waves:     261
 k-point ** :  -0.2683 0.0732 0.0000  plane waves:     263
 k-point ** :  -0.2439 0.0732 0.0000  plane waves:     262
 k-point ** :  -0.2195 0.0732 0.0000  plane waves:     262
 k-point ** :  -0.1951 0.0732 0.0000  plane waves:     262
 k-point ** :  -0.1707 0.0732 0.0000  plane waves:     265
 k-point ** :  -0.1463 0.0732 0.0000  plane waves:     267
 k-point ** :  -0.1220 0.0732 0.0000  plane waves:     268
 k-point ** :  -0.0976 0.0732 0.0000  plane waves:     269
 k-point ** :  -0.0732 0.0732 0.0000  plane waves:     267
 k-point ** :   0.0976 0.0976 0.0000  plane waves:     263
 k-point ** :   0.1220 0.0976 0.0000  plane waves:     265
 k-point ** :   0.1463 0.0976 0.0000  plane waves:     265
 k-point ** :   0.1707 0.0976 0.0000  plane waves:     266
 k-point ** :   0.1951 0.0976 0.0000  plane waves:     265
 k-point ** :   0.2195 0.0976 0.0000  plane waves:     264
 k-point ** :   0.2439 0.0976 0.0000  plane waves:     265
 k-point ** :   0.2683 0.0976 0.0000  plane waves:     261
 k-point ** :   0.2927 0.0976 0.0000  plane waves:     261
 k-point ** :   0.3171 0.0976 0.0000  plane waves:     261
 k-point ** :   0.3415 0.0976 0.0000  plane waves:     263
 k-point ** :   0.3659 0.0976 0.0000  plane waves:     263
 k-point ** :   0.3902 0.0976 0.0000  plane waves:     263
 k-point ** :   0.4146 0.0976 0.0000  plane waves:     258
 k-point ** :   0.4390 0.0976 0.0000  plane waves:     257
 k-point ** :   0.4634 0.0976 0.0000  plane waves:     257
 k-point ** :   0.4878 0.0976 0.0000  plane waves:     259
 k-point ** :  -0.4878 0.0976 0.0000  plane waves:     258
 k-point ** :  -0.4634 0.0976 0.0000  plane waves:     256
 k-point ** :  -0.4390 0.0976 0.0000  plane waves:     256
 k-point ** :  -0.4146 0.0976 0.0000  plane waves:     254
 k-point ** :  -0.3902 0.0976 0.0000  plane waves:     256
 k-point ** :  -0.3659 0.0976 0.0000  plane waves:     256
 k-point ** :  -0.3415 0.0976 0.0000  plane waves:     253
[...]
 k-point ** :  -0.3171 0.4634 0.1951  plane waves:     257
 k-point ** :  -0.2927 0.4634 0.1951  plane waves:     258
 k-point ** :  -0.2683 0.4634 0.1951  plane waves:     257
 k-point ** :  -0.3171 0.4878 0.1951  plane waves:     256
 k-point ** :  -0.2927 0.4878 0.1951  plane waves:     258
 k-point ** :  -0.3415 0.4390 0.2195  plane waves:     256
 k-point ** :  -0.3171 0.4390 0.2195  plane waves:     258
 k-point ** :  -0.2927 0.4390 0.2195  plane waves:     258
 k-point ** :  -0.3171 0.4634 0.2195  plane waves:     256
 k-point ** :  -0.2927 0.4634 0.2195  plane waves:     258
 k-point ** :  -0.2683 0.4634 0.2195  plane waves:     257
 k-point ** :  -0.2439 0.4634 0.2195  plane waves:     259
 k-point ** :  -0.2927 0.4878 0.2195  plane waves:     256
 k-point ** :  -0.2683 0.4878 0.2195  plane waves:     260
 k-point ** :  -0.2683 0.4878 0.2439  plane waves:     256

 maximum number of plane-waves:       271
 maximum index in each direction:
   IXMAX=    4   IYMAX=    4   IZMAX=    4
   IXMIN=   -4   IYMIN=   -4   IZMIN=   -4

 NGX is ok and might be reduce to  18
 NGY is ok and might be reduce to  18
 NGZ is ok and might be reduce to  18

 Broyden mixing: mesh for mixing (old mesh)
   NGX =  9   NGY =  9   NGZ =  9
  (NGX  = 36   NGY  = 36   NGZ  = 36)
  gives a total of    729 points

 initial charge density was supplied:
 charge density of overlapping atoms calculated
 number of electron      11.0000000 magnetization
 keeping initial charge density in first step

 Maximum index for augmentation-charges        13811 (set IRDMAX)

 First call to EWALD:  gamma=   0.777
 Maximum number of real-space cells 3x 3x 3
 Maximum number of reciprocal cells 3x 3x 3

----------------------------------------- Iteration    1(   1)  ---------------------------------------

 eigenvalue-minimisations  : 32790
 total energy-change (2. order) : 0.3246675E+02  (-0.5222890E+03)
 number of electron      11.0000000 magnetization
 augmentation part       11.0000000 magnetization

 Free energy of the ion-electron system (eV)
  alpha Z        PSCENC =        61.66610287
  Ewald energy   TEWEN  =     -1103.39027675
  -1/2 Hartree   DENC   =      -362.71999761
  -exchange  EXHF       =         0.00000000
  -V(xc)+E(xc)   XCENC  =        46.60205811
  PAW double counting   =      1227.37867422    -1333.49260159
  entropy T*S    EENTRO =        -0.00000668
  eigenvalues    EBANDS =       106.11868252
  atomic energy  EATOM  =      1390.30410994
  free energy    TOTEN  =        32.46674502 eV

  energy without entropy =       32.46675170  energy(sigma->0) =       32.46674724

[...]

 eigenvalue-minimisations  : 32051
 total energy-change (2. order) :-0.3745867E+02  (-0.3552921E+02)
 number of electron      11.0000000 magnetization
 augmentation part       11.0000000 magnetization

[...]

 Broyden mixing:
  rms(total) = 0.83775E+00    rms(broyden)= 0.83774E+00
  rms(prec ) = 0.31853E+01
  weight for this iteration     100.00

[...]

 eigenvalues of (default mixing * dielectric matrix)
  average eigenvalue GAMMA=   0.6541
  0.6541

[...]

 eigenvalue-minimisations  : 22987
 total energy-change (2. order) :-0.1286362E-05  (-0.4273011E-07)
 number of electron      11.0000013 magnetization
 augmentation part        6.9976815 magnetization

 Broyden mixing:
  rms(total) = 0.71108E-04    rms(broyden)= 0.71085E-04
  rms(prec ) = 0.26638E-03
  weight for this iteration     100.00

 eigenvalues of (default mixing * dielectric matrix)
  average eigenvalue GAMMA=   1.4731
  2.5318  2.5318  0.6562  0.9330  1.0452  1.1409

[...]

----------------------------------------- Iteration    1(  12)  ---------------------------------------

 eigenvalue-minimisations  : 17736
 total energy-change (2. order) : 0.3203832E-07  (-0.6755858E-08)
 number of electron      11.0000013 magnetization
 augmentation part        6.9976815 magnetization

 Free energy of the ion-electron system (eV)
  alpha Z        PSCENC =        61.66610287
  Ewald energy   TEWEN  =     -1103.39027675
  -1/2 Hartree   DENC   =      -338.17452016
  -exchange  EXHF       =         0.00000000
  -V(xc)+E(xc)   XCENC  =        45.39444827
  PAW double counting   =      1317.14619407    -1424.80501661
  entropy T*S    EENTRO =         0.00013776
  eigenvalues    EBANDS =        47.56123836
  atomic energy  EATOM  =      1390.30410994
  free energy    TOTEN  =        -4.29758225 eV

  energy without entropy =       -4.29772001  energy(sigma->0) =       -4.29762817

 average (electrostatic) potential at core
  the test charge radii are     0.9430
  (the norm of the test charge is              1.0000)
       1 -63.6188

 E-fermi :   7.3491     XC(G=0): -12.8837     alpha+bet :-13.3685

 k-point   1 :       0.0000    0.0000    0.0000
  band No.  band energies     occupation
      1      -2.0089      2.00000
      2       4.3342      2.00000
      3       4.3342      2.00000
      4       4.3342      2.00000
      5       5.1634      2.00000
      6       5.1634      2.00000
      7      29.8992      0.00000
      8      32.4789      0.00000
      9      32.4790      0.00000

[...]

 k-point *** :      -0.2683    0.4878    0.2439
  band No.  band energies     occupation
      1       3.2290      2.00000
      2       3.7829      2.00000
      3       3.8678      2.00000
      4       5.1220      2.00000
      5       5.8623      2.00000
      6      13.2209      0.00000
      7      13.6835      0.00000
      8      15.6881      0.00000
      9      16.1308      0.00000

 soft charge-density along one line, spin component           1
         0         1         2         3         4         5         6         7         8         9
x     4.0023    0.0000    0.4601    0.0000   -0.1477    0.0000   -0.0025    0.0000    0.0077    0.0000
x     0.0003    0.0000    0.0000    0.0000    0.0000    0.0000    0.0000    0.0000    0.0000    0.0000
y     4.0023    0.0000    0.4601    0.0000   -0.1477    0.0000   -0.0025    0.0000    0.0077    0.0000
y     0.0003    0.0000    0.0000    0.0000    0.0000    0.0000    0.0000    0.0000    0.0000    0.0000
z     4.0023    0.0000    0.4601    0.0000   -0.1477    0.0000   -0.0025    0.0000    0.0077    0.0000
z     0.0003    0.0000    0.0000    0.0000    0.0000    0.0000    0.0000    0.0000    0.0000    0.0000
 total charge-density along one line
x    11.0000    0.0000    5.4981    0.0000    1.5448    0.0000    0.1178    0.0000   -0.0160    0.0000
x     0.0063    0.0000   -0.0022    0.0000    0.0008    0.0000   -0.0003    0.0000    0.0001    0.0000
x     0.0000    0.0000    0.0000    0.0000    0.0000    0.0000    0.0000    0.0000    0.0000    0.0000
x     0.0000    0.0000    0.0000    0.0000    0.0000    0.0000    0.0000    0.0000
y    11.0000    0.0000    5.4981    0.0000    1.5448    0.0000    0.1178    0.0000   -0.0160    0.0000
y     0.0063    0.0000   -0.0022    0.0000    0.0008    0.0000   -0.0003    0.0000    0.0001    0.0000
y     0.0000    0.0000    0.0000    0.0000    0.0000    0.0000    0.0000    0.0000    0.0000    0.0000
y     0.0000    0.0000    0.0000    0.0000    0.0000    0.0000    0.0000    0.0000
z    11.0000    0.0000    5.4981    0.0000    1.5448    0.0000    0.1178    0.0000   -0.0160    0.0000
z     0.0063    0.0000   -0.0022    0.0000    0.0008    0.0000   -0.0003    0.0000    0.0001    0.0000
z     0.0000    0.0000    0.0000    0.0000    0.0000    0.0000    0.0000    0.0000    0.0000    0.0000
z     0.0000    0.0000    0.0000    0.0000    0.0000    0.0000    0.0000    0.0000

------------------------ aborting loop because EDIFF is reached ----------------------------------------

 total charge

# of ion     s       p       d       tot
  1        0.449   0.383   9.167   9.999

  FORCE on cell =-STRESS in cart. coord.  units (eV):
  Direction    XX          YY          ZZ          XY          YZ          ZX
  Alpha Z    61.66610    61.66610    61.66610
  Ewald    -367.79677  -367.79677  -367.79677     0.00000     0.00000     0.00000
  Hartree   112.72500   112.72500   112.72500     0.00000     0.00000     0.00000
  E(xc)     -63.44038   -63.44038   -63.44038     0.00000     0.00000     0.00000
  Local      93.60641    93.60641    93.60641     0.00007     0.00007     0.00007
  n-local   -20.37011   -22.60304   -21.38835    -1.54328     1.04579     1.72006
  augment    94.15194    94.15194    94.15194    -0.00004    -0.00004    -0.00004
  Kinetic    88.42268    92.46319    89.17961     2.66894    -2.26479    -1.99954
  Fock        0.00000     0.00000     0.00000     0.00000     0.00000     0.00000
  Total      -0.51970    -0.51970    -0.51970     0.00000     0.00000     0.00000
  in kB     -70.20929   -70.20929   -70.20929     0.00000     0.00000     0.00000

 VOLUME and BASIS-vectors are now :
  energy-cutoff  :      450.00
  volume of cell :       11.86
      direct lattice vectors                 reciprocal lattice vectors
     1.810000000  1.810000000  0.000000000     0.276243094  0.276243094 -0.276243094
     0.000000000  1.810000000  1.810000000    -0.276243094  0.276243094  0.276243094
     1.810000000  0.000000000  1.810000000     0.276243094 -0.276243094  0.276243094

  length of vectors
     2.559726548  2.559726548  2.559726548     0.478467074  0.478467074  0.478467074

 FORCES acting on ions
    electron-ion (+dipol)            ewald-force                    non-local-force                 convergence-correction
   -.376E-13 -.560E-13 0.750E-13   -.206E-14 -.151E-14 0.276E-15   0.196E-23 -.414E-24 -.517E-24   0.910E-13 0.653E-13 -.841E-14
   -.376E-13 -.560E-13 0.750E-13   -.206E-14 -.151E-14 0.276E-15   0.196E-23 -.414E-24 -.517E-24   0.910E-13 0.653E-13 -.841E-14

 POSITION                                       TOTAL-FORCE (eV/Angst)
      0.00000      0.00000      0.00000         0.000000      0.000000      0.000000
    total drift:                                0.000000      0.000000      0.000000

  FREE ENERGIE OF THE ION-ELECTRON SYSTEM (eV)
  free  energy   TOTEN  =        -4.29758225 eV

  energy  without entropy=       -4.29772001  energy(sigma->0) =       -4.29762817

 writing wavefunctions

 total charge

# of ion     s       p       d       tot
  1        0.449   0.383   9.167   9.999